letting n_nurses=25
letting n_days=7
letting n_shift_types=4
letting max_covers=4
letting t_covers=35
letting covers=[4,4,2,0,3,3,2,0,1,1,0,0,3,3,2,0,0,0,0,0,3,3,1,0,0,0,0,0]
letting prefes=[1,1,3,1,1,1,1,1,2,1,2,1,2,1,3,1,3,2,2,2,1,1,3,1,1,1,1,1,1,1,3,1,1,1,1,1,1,1,1,1,1,2,1,4,1,2,2,2,1,1,3,1,1,1,1,1,1,1,3,1,4,3,3,3,2,2,2,2,1,1,1,1,1,2,2,2,1,1,3,1,4,3,3,3,1,1,3,1,1,3,3,3,2,2,2,1,1,2,1,1,3,2,2,2,1,1,3,1,1,3,3,3,1,1,3,1,4,3,3,3,2,2,1,1,1,1,3,1,1,2,2,2,1,1,3,1,4,3,3,3,1,1,3,1,1,3,3,3,2,2,2,1,3,1,1,1,1,2,2,2,1,1,3,1,1,3,3,3,1,3,3,1,1,3,3,3,1,2,2,1,1,1,1,1,1,2,2,2,1,3,3,1,1,3,3,3,1,1,3,1,1,3,3,3,2,2,2,1,1,1,1,1,3,2,2,2,1,1,3,1,1,3,3,3,3,3,3,3,1,3,3,3,2,1,2,1,1,1,1,1,1,2,2,2,3,3,3,3,1,3,3,3,1,1,3,1,1,3,3,3,2,2,2,2,2,1,2,1,1,1,1,1,1,1,3,1,1,3,3,3,1,1,1,1,1,1,1,1,2,1,2,1,1,2,3,1,3,2,2,2,1,1,1,1,1,1,1,1,1,3,3,1,1,3,3,3,1,2,1,1,1,1,1,1,1,1,1,1,1,3,3,1,1,3,3,3,3,3,3,3,4,3,3,3,2,2,2,1,1,1,1,1,1,1,1,1,3,3,3,3,4,3,3,3,3,1,3,3,1,3,3,3,2,2,1,1,1,1,1,1,1,2,2,2,3,1,3,3,1,3,3,3,1,1,1,1,1,1,1,1,2,2,2,2,1,1,1,1,3,2,2,2,1,1,1,1,1,1,1,1,3,1,3,3,1,3,3,3,2,2,2,2,3,1,1,1,1,2,2,2,3,1,3,3,1,3,3,3,1,1,3,1,4,3,3,3,2,2,2,2,1,2,1,1,1,1,1,1,1,1,3,1,4,3,3,3,1,1,1,1,1,3,3,3,2,2,2,1,1,1,1,2,1,2,2,2,1,1,1,1,1,3,3,3,1,1,3,1,1,3,3,3,1,2,2,1,1,1,1,1,1,1,1,1,1,1,3,1,1,3,3,3,3,1,3,3,1,3,3,3,2,1,2,1,1,1,1,1,1,2,2,2,3,1,3,3,1,3,3,3,1,1,1,1,1,3,3,3,2,2,1,1,1,1,1,4,1,2,2,2,1,1,1,1,1,3,3,3,1,2,1,1,1,3,3,3,1,2,2,1,1,1,2,4,1,2,2,2,1,2,1,1,1,3,3,3,1,1,3,1,4,3,3,3,2,2,2,1,2,1,1,4,1,2,2,2,1,1,3,1,4,3,3,3,1,1,3,1,1,3,3,3,2,2,2,1,1,1,1,1,1,2,2,2,1,1,3,1,1,3,3,3,1,1,3,1,1,1,1,1,2,2,2,1,1,2,1,1,1,2,2,2,1,1,3,1,1,1,1,1]
letting ub =  213
